sat
(:added-eqs                       305
 :arith-eq-adapter                173
 :arith-bound-propagations-lp     43
 :arith-conflicts                 255
 :arith-diseq                     634
 :arith-fixed-eqs                 19
 :arith-grobner-calls             37
 :arith-grobner-conflicts         35
 :arith-horner-calls              11
 :arith-horner-conflicts          3
 :arith-horner-cross-nested-forms 6803
 :arith-lower                     292
 :arith-make-feasible             522
 :arith-max-columns               252
 :arith-max-rows                  122
 :arith-nla-lemmas                160
 :arith-nla-propagate-bounds      81
 :arith-nla-propagate-eq          87
 :arith-nra-calls                 4
 :arith-offset-eqs                6
 :arith-upper                     603
 :binary-propagations             394
 :card2bv-rewrites                60
 :conflicts                       31
 :decisions                       1182
 :del-clause                      390
 :final-checks                    72
 :max-memory                      80.76
 :memory                          51.69
 :minimized-lits                  1
 :mk-bool-var                     1233
 :mk-clause                       608
 :mk-clause-binary                235
 :nlsat-conflicts                 368
 :nlsat-decisions                 64
 :nlsat-propagations              16032
 :nlsat-restarts                  4
 :nlsat-stages                    6318
 :num-allocs                      555729439
 :num-checks                      1
 :propagations                    961
 :rlimit-count                    797092
 :sat-backjumps                   501
 :sat-conflicts                   501
 :sat-decisions                   2149
 :sat-del-clause                  18224
 :sat-elim-bool-vars-res          3652
 :sat-elim-clauses                400
 :sat-elim-literals               495
 :sat-minimized-lits              546
 :sat-mk-clause-2ary              13564
 :sat-mk-clause-3ary              9042
 :sat-mk-clause-nary              61002
 :sat-mk-var                      13987
 :sat-probing-assigned            131
 :sat-propagations-2ary           75590
 :sat-propagations-nary           163085
 :sat-restarts                    36
 :sat-scc-elim-vars               43
 :sat-subs-resolution             326
 :sat-subs-resolution-dyn         34
 :sat-subsumed                    2706
 :sat-units                       144
 :time                            0.72
 :total-time                      0.73)
